
Gurobi 8.1.1 (linux64, Python) logging started Mon Nov 21 16:24:44 2022


Gurobi 8.1.1 (linux64, Python) logging started Mon Nov 21 16:28:12 2022

Academic license - for non-commercial use only

Gurobi 8.1.1 (linux64, Python) logging started Mon Nov 21 16:30:50 2022

Academic license - for non-commercial use only
